c "528178.clq"
p edge 251 3760
e 1 17
e 1 18
e 1 19
e 1 20
e 1 21
e 1 22
e 1 26
e 1 27
e 1 28
e 1 29
e 1 31
e 1 35
e 1 37
e 1 39
e 1 44
e 1 47
e 1 49
e 1 50
e 1 51
e 1 54
e 1 57
e 1 59
e 1 61
e 1 65
e 1 71
e 1 74
e 1 78
e 1 79
e 1 85
e 1 91
e 1 99
e 1 100
e 1 104
e 1 108
e 1 111
e 1 114
e 1 116
e 1 131
e 1 135
e 1 141
e 1 144
e 1 151
e 1 161
e 1 172
e 1 173
e 1 174
e 1 184
e 1 194
e 1 197
e 1 198
e 1 206
e 1 209
e 1 222
e 1 226
e 1 228
e 1 229
e 1 230
e 1 241
e 2 17
e 2 18
e 2 19
e 2 20
e 2 23
e 2 24
e 2 25
e 2 27
e 2 29
e 2 32
e 2 33
e 2 37
e 2 39
e 2 53
e 2 55
e 2 56
e 2 58
e 2 59
e 2 66
e 2 68
e 2 70
e 2 72
e 2 75
e 2 82
e 2 83
e 2 85
e 2 91
e 2 93
e 2 95
e 2 97
e 2 99
e 2 100
e 2 101
e 2 103
e 2 104
e 2 107
e 2 108
e 2 116
e 2 117
e 2 132
e 2 140
e 2 142
e 2 145
e 2 159
e 2 170
e 2 176
e 2 180
e 2 181
e 2 184
e 2 189
e 2 196
e 2 201
e 2 202
e 2 212
e 2 235
e 2 238
e 2 243
e 3 17
e 3 18
e 3 19
e 3 20
e 3 21
e 3 22
e 3 23
e 3 24
e 3 25
e 3 26
e 3 27
e 3 28
e 3 29
e 3 30
e 3 31
e 3 32
e 3 33
e 3 34
e 3 39
e 3 45
e 3 46
e 3 50
e 3 51
e 3 52
e 3 54
e 3 55
e 3 59
e 3 63
e 3 67
e 3 68
e 3 69
e 3 84
e 3 86
e 3 87
e 3 97
e 3 98
e 3 111
e 3 121
e 3 122
e 3 142
e 3 147
e 3 166
e 3 168
e 3 178
e 3 180
e 3 182
e 3 197
e 3 198
e 3 217
e 4 17
e 4 18
e 4 19
e 4 20
e 4 21
e 4 23
e 4 24
e 4 25
e 4 30
e 4 32
e 4 34
e 4 38
e 4 41
e 4 43
e 4 45
e 4 53
e 4 59
e 4 75
e 4 88
e 4 99
e 4 114
e 4 126
e 4 130
e 4 135
e 4 145
e 4 161
e 4 163
e 4 167
e 4 170
e 4 172
e 4 184
e 4 189
e 4 193
e 4 196
e 4 199
e 4 203
e 4 215
e 4 217
e 4 236
e 4 240
e 4 243
e 4 251
e 5 17
e 5 18
e 5 21
e 5 24
e 5 36
e 5 40
e 5 45
e 5 54
e 5 70
e 5 78
e 5 97
e 5 133
e 5 167
e 5 196
e 5 201
e 5 233
e 6 17
e 6 77
e 7 17
e 7 18
e 7 19
e 7 20
e 7 21
e 7 22
e 7 23
e 7 25
e 7 27
e 7 29
e 7 30
e 7 31
e 7 32
e 7 35
e 7 40
e 7 41
e 7 43
e 7 44
e 7 45
e 7 57
e 7 58
e 7 59
e 7 61
e 7 65
e 7 66
e 7 78
e 7 85
e 7 89
e 7 91
e 7 95
e 7 101
e 7 123
e 7 124
e 7 126
e 7 150
e 7 158
e 7 165
e 7 167
e 7 188
e 7 215
e 7 218
e 7 219
e 7 230
e 7 246
e 7 250
e 8 17
e 8 18
e 8 19
e 8 20
e 8 22
e 8 23
e 8 26
e 8 30
e 8 32
e 8 34
e 8 35
e 8 44
e 8 48
e 8 49
e 8 50
e 8 51
e 8 53
e 8 64
e 8 71
e 8 79
e 8 81
e 8 87
e 8 90
e 8 95
e 8 113
e 8 114
e 8 116
e 8 121
e 8 170
e 8 171
e 8 184
e 8 200
e 8 205
e 8 207
e 8 245
e 8 249
e 9 17
e 9 18
e 9 19
e 9 20
e 9 21
e 9 24
e 9 28
e 9 32
e 9 38
e 9 40
e 9 47
e 9 49
e 9 50
e 9 59
e 9 65
e 9 66
e 9 67
e 9 95
e 9 96
e 9 113
e 9 116
e 9 117
e 9 120
e 9 122
e 9 141
e 9 150
e 9 165
e 9 168
e 9 179
e 9 209
e 9 220
e 9 222
e 9 226
e 9 229
e 9 231
e 10 17
e 10 18
e 10 19
e 10 20
e 10 21
e 10 22
e 10 23
e 10 24
e 10 25
e 10 26
e 10 27
e 10 28
e 10 29
e 10 30
e 10 31
e 10 33
e 10 35
e 10 36
e 10 44
e 10 55
e 10 61
e 10 63
e 10 64
e 10 70
e 10 74
e 10 82
e 10 89
e 10 96
e 10 98
e 10 100
e 10 106
e 10 109
e 10 113
e 10 119
e 10 120
e 10 121
e 10 123
e 10 126
e 10 134
e 10 137
e 10 138
e 10 141
e 10 145
e 10 165
e 10 170
e 10 173
e 10 180
e 10 188
e 10 192
e 10 194
e 10 198
e 10 228
e 10 240
e 11 17
e 11 18
e 11 19
e 11 20
e 11 21
e 11 22
e 11 23
e 11 24
e 11 26
e 11 33
e 11 34
e 11 38
e 11 41
e 11 43
e 11 47
e 11 48
e 11 52
e 11 53
e 11 56
e 11 58
e 11 59
e 11 60
e 11 63
e 11 65
e 11 66
e 11 73
e 11 79
e 11 80
e 11 84
e 11 91
e 11 94
e 11 95
e 11 97
e 11 104
e 11 145
e 11 153
e 11 157
e 11 158
e 11 163
e 11 170
e 11 176
e 11 177
e 11 179
e 11 210
e 11 217
e 11 220
e 11 232
e 12 17
e 12 18
e 12 19
e 12 20
e 12 22
e 12 24
e 12 25
e 12 27
e 12 28
e 12 29
e 12 48
e 12 51
e 12 68
e 12 80
e 12 121
e 12 135
e 12 141
e 12 150
e 12 156
e 12 159
e 12 164
e 12 175
e 12 182
e 12 195
e 12 212
e 13 17
e 13 18
e 13 19
e 13 20
e 13 21
e 13 22
e 13 23
e 13 25
e 13 29
e 13 32
e 13 33
e 13 36
e 13 41
e 13 44
e 13 46
e 13 48
e 13 54
e 13 55
e 13 56
e 13 58
e 13 61
e 13 62
e 13 64
e 13 74
e 13 79
e 13 80
e 13 93
e 13 95
e 13 100
e 13 114
e 13 116
e 13 122
e 13 129
e 13 132
e 13 136
e 13 147
e 13 151
e 13 154
e 13 159
e 13 164
e 13 170
e 13 172
e 13 175
e 13 198
e 13 204
e 13 213
e 13 219
e 13 220
e 13 230
e 13 238
e 13 246
e 14 17
e 14 18
e 14 19
e 14 20
e 14 21
e 14 22
e 14 23
e 14 26
e 14 27
e 14 28
e 14 29
e 14 30
e 14 31
e 14 32
e 14 34
e 14 41
e 14 42
e 14 44
e 14 48
e 14 49
e 14 51
e 14 56
e 14 57
e 14 75
e 14 76
e 14 88
e 14 93
e 14 102
e 14 111
e 14 128
e 14 130
e 14 133
e 14 152
e 14 155
e 14 164
e 14 169
e 14 172
e 14 187
e 14 190
e 14 192
e 14 194
e 14 205
e 14 216
e 14 218
e 14 224
e 14 225
e 14 233
e 15 17
e 15 18
e 15 19
e 15 20
e 15 21
e 15 22
e 15 24
e 15 25
e 15 26
e 15 27
e 15 28
e 15 30
e 15 33
e 15 34
e 15 35
e 15 36
e 15 37
e 15 42
e 15 44
e 15 45
e 15 46
e 15 47
e 15 49
e 15 51
e 15 54
e 15 55
e 15 57
e 15 60
e 15 62
e 15 67
e 15 70
e 15 73
e 15 76
e 15 78
e 15 84
e 15 90
e 15 93
e 15 94
e 15 99
e 15 100
e 15 101
e 15 110
e 15 120
e 15 121
e 15 124
e 15 126
e 15 137
e 15 146
e 15 157
e 15 168
e 15 190
e 15 192
e 15 193
e 15 202
e 15 204
e 15 208
e 15 213
e 15 223
e 15 230
e 15 231
e 15 240
e 15 243
e 15 251
e 16 17
e 16 18
e 16 19
e 16 21
e 16 22
e 16 23
e 16 24
e 16 26
e 16 32
e 16 37
e 16 38
e 16 48
e 16 54
e 16 55
e 16 58
e 16 69
e 16 71
e 16 72
e 16 74
e 16 87
e 16 98
e 16 107
e 16 130
e 16 143
e 16 165
e 16 178
e 16 197
e 16 206
e 16 218
e 16 233
e 17 18
e 17 19
e 17 20
e 17 21
e 17 22
e 17 23
e 17 24
e 17 25
e 17 26
e 17 28
e 17 29
e 17 31
e 17 32
e 17 33
e 17 34
e 17 35
e 17 37
e 17 38
e 17 39
e 17 40
e 17 41
e 17 42
e 17 43
e 17 44
e 17 45
e 17 46
e 17 47
e 17 48
e 17 53
e 17 54
e 17 56
e 17 57
e 17 60
e 17 63
e 17 64
e 17 65
e 17 70
e 17 71
e 17 73
e 17 76
e 17 80
e 17 82
e 17 85
e 17 86
e 17 89
e 17 91
e 17 92
e 17 93
e 17 97
e 17 100
e 17 102
e 17 105
e 17 109
e 17 111
e 17 115
e 17 119
e 17 121
e 17 124
e 17 127
e 17 128
e 17 135
e 17 137
e 17 139
e 17 142
e 17 143
e 17 147
e 17 149
e 17 151
e 17 152
e 17 153
e 17 157
e 17 160
e 17 166
e 17 168
e 17 175
e 17 177
e 17 180
e 17 183
e 17 185
e 17 186
e 17 189
e 17 190
e 17 194
e 17 202
e 17 208
e 17 214
e 17 218
e 17 224
e 17 225
e 17 230
e 17 232
e 17 235
e 17 236
e 17 238
e 17 244
e 17 246
e 17 251
e 18 19
e 18 20
e 18 21
e 18 22
e 18 23
e 18 24
e 18 25
e 18 26
e 18 27
e 18 28
e 18 29
e 18 30
e 18 32
e 18 33
e 18 34
e 18 36
e 18 38
e 18 39
e 18 40
e 18 41
e 18 42
e 18 44
e 18 45
e 18 46
e 18 50
e 18 54
e 18 58
e 18 60
e 18 63
e 18 68
e 18 72
e 18 75
e 18 76
e 18 78
e 18 82
e 18 85
e 18 86
e 18 88
e 18 91
e 18 92
e 18 95
e 18 99
e 18 100
e 18 102
e 18 103
e 18 107
e 18 108
e 18 109
e 18 120
e 18 125
e 18 134
e 18 135
e 18 137
e 18 143
e 18 144
e 18 150
e 18 163
e 18 167
e 18 168
e 18 171
e 18 176
e 18 177
e 18 181
e 18 185
e 18 192
e 18 199
e 18 200
e 18 227
e 18 228
e 18 229
e 18 235
e 18 236
e 18 238
e 19 20
e 19 21
e 19 22
e 19 23
e 19 24
e 19 25
e 19 26
e 19 27
e 19 28
e 19 29
e 19 30
e 19 31
e 19 33
e 19 34
e 19 35
e 19 36
e 19 37
e 19 38
e 19 40
e 19 41
e 19 43
e 19 46
e 19 48
e 19 49
e 19 50
e 19 52
e 19 53
e 19 56
e 19 58
e 19 60
e 19 61
e 19 62
e 19 63
e 19 66
e 19 67
e 19 68
e 19 69
e 19 70
e 19 74
e 19 75
e 19 76
e 19 77
e 19 79
e 19 85
e 19 87
e 19 89
e 19 90
e 19 92
e 19 93
e 19 94
e 19 97
e 19 98
e 19 99
e 19 100
e 19 104
e 19 105
e 19 110
e 19 112
e 19 113
e 19 116
e 19 122
e 19 123
e 19 124
e 19 125
e 19 127
e 19 130
e 19 133
e 19 135
e 19 136
e 19 137
e 19 152
e 19 154
e 19 156
e 19 157
e 19 158
e 19 162
e 19 164
e 19 167
e 19 169
e 19 171
e 19 183
e 19 184
e 19 186
e 19 187
e 19 188
e 19 192
e 19 194
e 19 196
e 19 198
e 19 204
e 19 205
e 19 207
e 19 209
e 19 213
e 19 215
e 19 222
e 19 225
e 19 230
e 19 237
e 19 242
e 19 243
e 19 248
e 20 21
e 20 22
e 20 23
e 20 24
e 20 25
e 20 26
e 20 27
e 20 28
e 20 29
e 20 31
e 20 32
e 20 33
e 20 35
e 20 38
e 20 39
e 20 40
e 20 41
e 20 42
e 20 43
e 20 45
e 20 46
e 20 50
e 20 51
e 20 52
e 20 54
e 20 56
e 20 58
e 20 64
e 20 65
e 20 69
e 20 71
e 20 73
e 20 77
e 20 78
e 20 81
e 20 92
e 20 93
e 20 96
e 20 112
e 20 113
e 20 119
e 20 120
e 20 124
e 20 130
e 20 131
e 20 132
e 20 134
e 20 136
e 20 137
e 20 140
e 20 143
e 20 148
e 20 153
e 20 162
e 20 171
e 20 177
e 20 180
e 20 190
e 20 193
e 20 206
e 20 213
e 20 214
e 20 230
e 20 234
e 20 238
e 21 22
e 21 23
e 21 24
e 21 25
e 21 26
e 21 27
e 21 28
e 21 29
e 21 30
e 21 31
e 21 32
e 21 37
e 21 38
e 21 39
e 21 40
e 21 41
e 21 42
e 21 48
e 21 50
e 21 53
e 21 54
e 21 56
e 21 58
e 21 60
e 21 62
e 21 63
e 21 67
e 21 69
e 21 70
e 21 71
e 21 77
e 21 88
e 21 91
e 21 96
e 21 102
e 21 104
e 21 105
e 21 106
e 21 109
e 21 118
e 21 126
e 21 128
e 21 131
e 21 133
e 21 134
e 21 135
e 21 139
e 21 141
e 21 144
e 21 147
e 21 152
e 21 155
e 21 157
e 21 158
e 21 159
e 21 162
e 21 166
e 21 169
e 21 176
e 21 179
e 21 180
e 21 183
e 21 184
e 21 185
e 21 188
e 21 190
e 21 191
e 21 201
e 21 203
e 21 204
e 21 207
e 21 208
e 21 216
e 21 217
e 21 221
e 21 222
e 21 223
e 21 225
e 21 228
e 21 240
e 21 242
e 21 243
e 21 244
e 21 245
e 21 246
e 21 247
e 21 249
e 22 23
e 22 24
e 22 25
e 22 27
e 22 28
e 22 30
e 22 31
e 22 33
e 22 34
e 22 35
e 22 36
e 22 37
e 22 39
e 22 44
e 22 52
e 22 55
e 22 56
e 22 57
e 22 61
e 22 66
e 22 72
e 22 75
e 22 78
e 22 79
e 22 88
e 22 95
e 22 100
e 22 103
e 22 105
e 22 114
e 22 117
e 22 128
e 22 130
e 22 134
e 22 137
e 22 142
e 22 144
e 22 147
e 22 151
e 22 152
e 22 157
e 22 160
e 22 162
e 22 164
e 22 169
e 22 170
e 22 174
e 22 179
e 22 183
e 22 187
e 22 189
e 22 192
e 22 194
e 22 205
e 22 218
e 22 227
e 22 237
e 22 247
e 22 251
e 23 25
e 23 26
e 23 28
e 23 29
e 23 30
e 23 31
e 23 33
e 23 34
e 23 35
e 23 36
e 23 37
e 23 42
e 23 45
e 23 46
e 23 49
e 23 50
e 23 51
e 23 52
e 23 53
e 23 54
e 23 56
e 23 57
e 23 60
e 23 61
e 23 62
e 23 64
e 23 65
e 23 67
e 23 76
e 23 80
e 23 81
e 23 82
e 23 84
e 23 85
e 23 90
e 23 95
e 23 104
e 23 114
e 23 116
e 23 127
e 23 129
e 23 130
e 23 131
e 23 133
e 23 135
e 23 148
e 23 150
e 23 154
e 23 157
e 23 179
e 23 181
e 23 183
e 23 186
e 23 194
e 23 200
e 23 204
e 23 206
e 23 208
e 23 210
e 23 213
e 23 214
e 23 215
e 23 221
e 23 228
e 23 231
e 23 236
e 23 243
e 23 250
e 24 25
e 24 26
e 24 27
e 24 30
e 24 31
e 24 33
e 24 34
e 24 35
e 24 36
e 24 37
e 24 39
e 24 40
e 24 46
e 24 47
e 24 48
e 24 52
e 24 58
e 24 61
e 24 62
e 24 64
e 24 68
e 24 70
e 24 73
e 24 77
e 24 81
e 24 83
e 24 84
e 24 85
e 24 90
e 24 94
e 24 97
e 24 101
e 24 106
e 24 110
e 24 113
e 24 117
e 24 121
e 24 123
e 24 129
e 24 134
e 24 141
e 24 142
e 24 159
e 24 165
e 24 167
e 24 169
e 24 170
e 24 175
e 24 177
e 24 202
e 24 209
e 24 225
e 24 228
e 24 234
e 24 244
e 24 247
e 24 248
e 24 249
e 25 26
e 25 27
e 25 30
e 25 32
e 25 33
e 25 34
e 25 35
e 25 36
e 25 37
e 25 42
e 25 44
e 25 45
e 25 46
e 25 47
e 25 50
e 25 51
e 25 52
e 25 53
e 25 60
e 25 67
e 25 72
e 25 73
e 25 76
e 25 77
e 25 83
e 25 84
e 25 92
e 25 93
e 25 95
e 25 103
e 25 108
e 25 118
e 25 121
e 25 126
e 25 136
e 25 142
e 25 143
e 25 147
e 25 163
e 25 164
e 25 169
e 25 172
e 25 180
e 25 183
e 25 191
e 25 201
e 25 244
e 25 250
e 26 27
e 26 28
e 26 29
e 26 31
e 26 36
e 26 38
e 26 39
e 26 40
e 26 42
e 26 43
e 26 45
e 26 46
e 26 48
e 26 54
e 26 59
e 26 61
e 26 64
e 26 66
e 26 69
e 26 73
e 26 76
e 26 79
e 26 80
e 26 87
e 26 91
e 26 92
e 26 94
e 26 96
e 26 101
e 26 102
e 26 103
e 26 107
e 26 108
e 26 112
e 26 113
e 26 119
e 26 123
e 26 126
e 26 128
e 26 139
e 26 140
e 26 142
e 26 148
e 26 161
e 26 173
e 26 179
e 26 185
e 26 186
e 26 191
e 26 192
e 26 194
e 26 195
e 26 196
e 26 211
e 26 217
e 26 221
e 26 230
e 26 246
e 26 247
e 27 28
e 27 30
e 27 31
e 27 32
e 27 33
e 27 42
e 27 43
e 27 44
e 27 45
e 27 48
e 27 49
e 27 53
e 27 55
e 27 56
e 27 59
e 27 60
e 27 65
e 27 69
e 27 74
e 27 75
e 27 80
e 27 81
e 27 85
e 27 106
e 27 107
e 27 119
e 27 121
e 27 122
e 27 124
e 27 138
e 27 144
e 27 155
e 27 161
e 27 165
e 27 176
e 27 199
e 27 203
e 27 206
e 27 208
e 27 223
e 27 227
e 27 228
e 27 240
e 28 29
e 28 30
e 28 31
e 28 32
e 28 34
e 28 35
e 28 36
e 28 37
e 28 38
e 28 40
e 28 42
e 28 44
e 28 45
e 28 47
e 28 49
e 28 50
e 28 51
e 28 54
e 28 55
e 28 56
e 28 58
e 28 60
e 28 62
e 28 66
e 28 68
e 28 72
e 28 73
e 28 74
e 28 75
e 28 80
e 28 86
e 28 87
e 28 90
e 28 94
e 28 99
e 28 101
e 28 106
e 28 108
e 28 110
e 28 111
e 28 121
e 28 132
e 28 134
e 28 140
e 28 144
e 28 146
e 28 151
e 28 154
e 28 164
e 28 169
e 28 179
e 28 183
e 28 185
e 28 187
e 28 195
e 28 204
e 28 210
e 28 214
e 28 232
e 28 248
e 29 33
e 29 34
e 29 36
e 29 38
e 29 40
e 29 41
e 29 43
e 29 46
e 29 50
e 29 55
e 29 56
e 29 57
e 29 62
e 29 64
e 29 65
e 29 67
e 29 72
e 29 74
e 29 75
e 29 80
e 29 85
e 29 87
e 29 89
e 29 101
e 29 117
e 29 118
e 29 125
e 29 130
e 29 135
e 29 153
e 29 158
e 29 165
e 29 174
e 29 178
e 29 181
e 29 184
e 29 190
e 29 191
e 29 192
e 29 204
e 29 208
e 29 229
e 29 231
e 29 235
e 29 236
e 29 240
e 29 248
e 30 31
e 30 36
e 30 37
e 30 38
e 30 39
e 30 41
e 30 42
e 30 52
e 30 59
e 30 64
e 30 65
e 30 66
e 30 78
e 30 80
e 30 81
e 30 83
e 30 84
e 30 96
e 30 100
e 30 113
e 30 114
e 30 118
e 30 127
e 30 131
e 30 134
e 30 135
e 30 189
e 30 191
e 30 193
e 30 211
e 30 219
e 30 226
e 30 229
e 30 232
e 30 233
e 31 34
e 31 35
e 31 39
e 31 43
e 31 56
e 31 62
e 31 64
e 31 66
e 31 71
e 31 79
e 31 82
e 31 87
e 31 91
e 31 96
e 31 97
e 31 100
e 31 105
e 31 108
e 31 128
e 31 131
e 31 136
e 31 142
e 31 143
e 31 146
e 31 153
e 31 169
e 31 205
e 31 215
e 31 222
e 31 225
e 31 232
e 32 35
e 32 37
e 32 39
e 32 41
e 32 43
e 32 44
e 32 45
e 32 47
e 32 49
e 32 55
e 32 59
e 32 64
e 32 67
e 32 72
e 32 77
e 32 78
e 32 84
e 32 88
e 32 95
e 32 96
e 32 99
e 32 101
e 32 108
e 32 116
e 32 118
e 32 120
e 32 121
e 32 126
e 32 139
e 32 152
e 32 169
e 32 171
e 32 174
e 32 211
e 32 214
e 32 241
e 32 242
e 33 36
e 33 37
e 33 38
e 33 39
e 33 42
e 33 44
e 33 47
e 33 51
e 33 57
e 33 58
e 33 61
e 33 75
e 33 76
e 33 84
e 33 87
e 33 92
e 33 97
e 33 107
e 33 111
e 33 119
e 33 126
e 33 130
e 33 142
e 33 145
e 33 149
e 33 170
e 33 172
e 33 175
e 33 181
e 33 182
e 33 191
e 33 195
e 33 201
e 33 205
e 33 217
e 33 251
e 34 35
e 34 37
e 34 40
e 34 43
e 34 44
e 34 60
e 34 61
e 34 64
e 34 70
e 34 71
e 34 72
e 34 74
e 34 79
e 34 84
e 34 96
e 34 98
e 34 101
e 34 105
e 34 112
e 34 113
e 34 114
e 34 123
e 34 178
e 34 180
e 34 183
e 34 195
e 34 201
e 34 232
e 34 234
e 35 36
e 35 42
e 35 47
e 35 50
e 35 51
e 35 54
e 35 55
e 35 57
e 35 65
e 35 67
e 35 68
e 35 70
e 35 92
e 35 102
e 35 103
e 35 104
e 35 107
e 35 108
e 35 111
e 35 112
e 35 115
e 35 141
e 35 143
e 35 147
e 35 154
e 35 165
e 35 166
e 35 180
e 35 187
e 35 189
e 35 190
e 35 191
e 35 198
e 35 203
e 35 217
e 35 219
e 35 234
e 36 38
e 36 39
e 36 40
e 36 41
e 36 42
e 36 43
e 36 47
e 36 48
e 36 49
e 36 52
e 36 53
e 36 54
e 36 61
e 36 65
e 36 67
e 36 68
e 36 70
e 36 73
e 36 74
e 36 77
e 36 79
e 36 83
e 36 87
e 36 90
e 36 93
e 36 97
e 36 98
e 36 102
e 36 103
e 36 110
e 36 115
e 36 118
e 36 123
e 36 124
e 36 127
e 36 136
e 36 140
e 36 141
e 36 160
e 36 171
e 36 176
e 36 177
e 36 178
e 36 183
e 36 184
e 36 186
e 36 188
e 36 195
e 36 204
e 36 205
e 36 209
e 36 216
e 36 218
e 36 220
e 36 227
e 36 233
e 36 234
e 36 235
e 36 241
e 36 244
e 37 38
e 37 39
e 37 40
e 37 43
e 37 45
e 37 46
e 37 47
e 37 52
e 37 53
e 37 56
e 37 64
e 37 66
e 37 68
e 37 69
e 37 72
e 37 73
e 37 75
e 37 76
e 37 78
e 37 81
e 37 82
e 37 86
e 37 89
e 37 100
e 37 102
e 37 125
e 37 128
e 37 137
e 37 140
e 37 143
e 37 153
e 37 160
e 37 161
e 37 166
e 37 167
e 37 181
e 37 184
e 37 201
e 37 206
e 37 211
e 37 219
e 37 229
e 37 237
e 37 242
e 37 248
e 38 40
e 38 46
e 38 55
e 38 58
e 38 60
e 38 61
e 38 63
e 38 64
e 38 65
e 38 68
e 38 70
e 38 74
e 38 79
e 38 82
e 38 87
e 38 90
e 38 92
e 38 95
e 38 101
e 38 109
e 38 110
e 38 114
e 38 115
e 38 125
e 38 128
e 38 132
e 38 133
e 38 136
e 38 137
e 38 142
e 38 143
e 38 148
e 38 149
e 38 152
e 38 171
e 38 180
e 38 189
e 38 192
e 38 207
e 38 212
e 38 251
e 39 41
e 39 42
e 39 46
e 39 50
e 39 51
e 39 53
e 39 55
e 39 57
e 39 59
e 39 65
e 39 80
e 39 82
e 39 91
e 39 94
e 39 118
e 39 119
e 39 124
e 39 125
e 39 128
e 39 133
e 39 139
e 39 140
e 39 151
e 39 153
e 39 156
e 39 164
e 39 181
e 39 186
e 39 189
e 39 200
e 39 203
e 39 204
e 39 211
e 39 213
e 39 215
e 39 216
e 39 224
e 39 238
e 39 242
e 40 41
e 40 46
e 40 47
e 40 49
e 40 50
e 40 52
e 40 54
e 40 59
e 40 60
e 40 67
e 40 79
e 40 81
e 40 85
e 40 91
e 40 95
e 40 104
e 40 111
e 40 112
e 40 115
e 40 118
e 40 126
e 40 127
e 40 130
e 40 131
e 40 137
e 40 140
e 40 141
e 40 145
e 40 148
e 40 151
e 40 156
e 40 160
e 40 165
e 40 177
e 40 185
e 40 211
e 40 212
e 40 217
e 40 220
e 40 226
e 40 227
e 40 241
e 40 243
e 40 248
e 41 43
e 41 51
e 41 60
e 41 73
e 41 76
e 41 81
e 41 83
e 41 86
e 41 87
e 41 89
e 41 91
e 41 93
e 41 100
e 41 113
e 41 115
e 41 117
e 41 118
e 41 121
e 41 140
e 41 145
e 41 146
e 41 148
e 41 149
e 41 167
e 41 172
e 41 173
e 41 174
e 41 187
e 41 189
e 41 194
e 41 195
e 41 200
e 41 215
e 41 222
e 41 234
e 41 238
e 42 43
e 42 47
e 42 48
e 42 49
e 42 50
e 42 51
e 42 59
e 42 61
e 42 63
e 42 66
e 42 69
e 42 71
e 42 72
e 42 75
e 42 77
e 42 86
e 42 88
e 42 92
e 42 94
e 42 105
e 42 106
e 42 109
e 42 111
e 42 118
e 42 124
e 42 126
e 42 130
e 42 136
e 42 138
e 42 147
e 42 148
e 42 155
e 42 159
e 42 179
e 42 181
e 42 186
e 42 193
e 42 197
e 42 206
e 42 210
e 42 229
e 42 230
e 42 245
e 43 51
e 43 57
e 43 59
e 43 62
e 43 63
e 43 68
e 43 81
e 43 92
e 43 93
e 43 100
e 43 106
e 43 111
e 43 123
e 43 126
e 43 127
e 43 128
e 43 152
e 43 176
e 43 194
e 43 200
e 43 211
e 43 212
e 43 213
e 43 240
e 44 45
e 44 47
e 44 48
e 44 56
e 44 65
e 44 74
e 44 80
e 44 82
e 44 83
e 44 88
e 44 92
e 44 101
e 44 103
e 44 105
e 44 122
e 44 123
e 44 134
e 44 143
e 44 145
e 44 151
e 44 161
e 44 175
e 44 212
e 44 223
e 44 236
e 44 243
e 44 248
e 44 249
e 45 53
e 45 57
e 45 65
e 45 96
e 45 98
e 45 109
e 45 110
e 45 116
e 45 122
e 45 142
e 45 146
e 45 147
e 45 158
e 45 161
e 45 162
e 45 170
e 45 174
e 45 176
e 45 178
e 45 183
e 45 190
e 45 209
e 45 234
e 45 238
e 45 239
e 45 243
e 46 48
e 46 49
e 46 52
e 46 53
e 46 62
e 46 63
e 46 66
e 46 67
e 46 68
e 46 70
e 46 73
e 46 86
e 46 98
e 46 105
e 46 106
e 46 115
e 46 117
e 46 132
e 46 140
e 46 147
e 46 155
e 46 156
e 46 166
e 46 171
e 46 187
e 46 192
e 46 193
e 46 197
e 46 201
e 46 210
e 46 220
e 46 223
e 46 227
e 46 235
e 46 245
e 46 246
e 46 251
e 47 49
e 47 52
e 47 53
e 47 59
e 47 61
e 47 67
e 47 70
e 47 82
e 47 102
e 47 103
e 47 105
e 47 107
e 47 120
e 47 135
e 47 149
e 47 151
e 47 164
e 47 177
e 47 187
e 47 200
e 47 204
e 47 209
e 47 212
e 47 218
e 47 226
e 47 231
e 47 239
e 47 249
e 48 49
e 48 72
e 48 77
e 48 84
e 48 85
e 48 88
e 48 98
e 48 111
e 48 129
e 48 134
e 48 142
e 48 148
e 48 152
e 48 153
e 48 158
e 48 160
e 48 162
e 48 169
e 48 191
e 48 230
e 48 233
e 48 245
e 48 248
e 49 52
e 49 58
e 49 63
e 49 69
e 49 80
e 49 83
e 49 85
e 49 86
e 49 88
e 49 92
e 49 94
e 49 108
e 49 127
e 49 144
e 49 177
e 49 189
e 49 191
e 49 210
e 49 217
e 49 219
e 49 235
e 49 251
e 50 52
e 50 57
e 50 61
e 50 62
e 50 66
e 50 79
e 50 85
e 50 89
e 50 90
e 50 95
e 50 99
e 50 104
e 50 110
e 50 111
e 50 112
e 50 113
e 50 130
e 50 141
e 50 143
e 50 146
e 50 147
e 50 160
e 50 162
e 50 163
e 50 168
e 50 178
e 50 195
e 50 201
e 50 203
e 50 212
e 50 214
e 50 229
e 51 57
e 51 69
e 51 72
e 51 110
e 51 111
e 51 136
e 51 149
e 51 150
e 51 163
e 51 207
e 51 221
e 51 225
e 51 226
e 51 236
e 51 239
e 52 58
e 52 62
e 52 68
e 52 69
e 52 71
e 52 74
e 52 76
e 52 78
e 52 82
e 52 83
e 52 89
e 52 90
e 52 98
e 52 99
e 52 106
e 52 119
e 52 123
e 52 143
e 52 151
e 52 195
e 52 196
e 52 245
e 53 55
e 53 58
e 53 62
e 53 63
e 53 72
e 53 77
e 53 86
e 53 91
e 53 97
e 53 102
e 53 103
e 53 128
e 53 138
e 53 145
e 53 146
e 53 148
e 53 149
e 53 151
e 53 172
e 53 190
e 53 200
e 53 212
e 53 231
e 53 245
e 54 55
e 54 63
e 54 68
e 54 71
e 54 76
e 54 77
e 54 93
e 54 120
e 54 122
e 54 129
e 54 144
e 54 147
e 54 152
e 54 160
e 54 163
e 54 177
e 54 193
e 54 194
e 54 214
e 54 247
e 55 57
e 55 60
e 55 66
e 55 69
e 55 71
e 55 78
e 55 81
e 55 86
e 55 88
e 55 90
e 55 112
e 55 115
e 55 117
e 55 119
e 55 121
e 55 141
e 55 149
e 55 165
e 55 166
e 55 179
e 55 181
e 55 189
e 55 193
e 55 224
e 55 247
e 55 248
e 55 251
e 56 67
e 56 70
e 56 71
e 56 74
e 56 75
e 56 77
e 56 83
e 56 86
e 56 91
e 56 94
e 56 96
e 56 99
e 56 107
e 56 109
e 56 131
e 56 133
e 56 138
e 56 140
e 56 145
e 56 156
e 56 157
e 56 167
e 56 173
e 56 178
e 56 188
e 56 195
e 56 212
e 56 214
e 56 239
e 56 244
e 56 249
e 57 63
e 57 68
e 57 74
e 57 82
e 57 87
e 57 88
e 57 92
e 57 93
e 57 95
e 57 98
e 57 128
e 57 143
e 57 149
e 57 155
e 57 156
e 57 157
e 57 158
e 57 166
e 57 167
e 57 182
e 57 196
e 57 201
e 57 215
e 57 216
e 57 218
e 57 229
e 57 239
e 57 244
e 57 249
e 58 60
e 58 66
e 58 71
e 58 83
e 58 84
e 58 87
e 58 104
e 58 105
e 58 113
e 58 120
e 58 127
e 58 140
e 58 144
e 58 145
e 58 146
e 58 150
e 58 159
e 58 165
e 58 170
e 58 172
e 58 174
e 58 176
e 58 179
e 58 202
e 58 203
e 58 242
e 58 250
e 59 62
e 59 63
e 59 69
e 59 74
e 59 78
e 59 80
e 59 82
e 59 83
e 59 85
e 59 89
e 59 96
e 59 106
e 59 108
e 59 109
e 59 112
e 59 115
e 59 121
e 59 123
e 59 139
e 59 144
e 59 146
e 59 149
e 59 153
e 59 161
e 59 162
e 59 168
e 59 186
e 59 188
e 59 191
e 59 193
e 59 221
e 59 229
e 59 245
e 59 246
e 60 67
e 60 69
e 60 71
e 60 73
e 60 80
e 60 86
e 60 88
e 60 89
e 60 102
e 60 106
e 60 111
e 60 114
e 60 117
e 60 118
e 60 124
e 60 145
e 60 154
e 60 159
e 60 175
e 60 183
e 60 194
e 60 200
e 60 214
e 60 215
e 60 223
e 60 231
e 60 241
e 61 62
e 61 69
e 61 70
e 61 71
e 61 72
e 61 73
e 61 76
e 61 79
e 61 82
e 61 93
e 61 103
e 61 106
e 61 116
e 61 122
e 61 135
e 61 140
e 61 147
e 61 177
e 61 182
e 61 186
e 61 187
e 61 197
e 61 198
e 61 199
e 61 210
e 62 81
e 62 98
e 62 107
e 62 115
e 62 118
e 62 150
e 62 166
e 62 178
e 62 182
e 62 188
e 62 194
e 62 197
e 62 198
e 62 199
e 62 206
e 62 231
e 62 232
e 62 233
e 62 241
e 62 242
e 62 249
e 63 64
e 63 73
e 63 87
e 63 93
e 63 96
e 63 106
e 63 110
e 63 112
e 63 114
e 63 123
e 63 125
e 63 127
e 63 150
e 63 163
e 63 196
e 63 220
e 63 222
e 63 224
e 63 233
e 63 247
e 64 75
e 64 81
e 64 91
e 64 104
e 64 105
e 64 109
e 64 110
e 64 114
e 64 115
e 64 125
e 64 133
e 64 145
e 64 148
e 64 149
e 64 162
e 64 194
e 64 199
e 64 213
e 64 214
e 64 223
e 64 228
e 64 240
e 65 83
e 65 95
e 65 97
e 65 102
e 65 108
e 65 111
e 65 116
e 65 127
e 65 129
e 65 134
e 65 136
e 65 150
e 65 154
e 65 156
e 65 158
e 65 164
e 65 169
e 65 173
e 65 198
e 65 205
e 65 216
e 65 226
e 65 235
e 65 240
e 65 242
e 66 77
e 66 78
e 66 81
e 66 84
e 66 86
e 66 88
e 66 99
e 66 106
e 66 112
e 66 125
e 66 150
e 66 154
e 66 158
e 66 162
e 66 173
e 66 184
e 66 185
e 66 225
e 66 228
e 66 236
e 66 247
e 67 76
e 67 85
e 67 89
e 67 110
e 67 117
e 67 120
e 67 126
e 67 129
e 67 138
e 67 148
e 67 152
e 67 159
e 67 168
e 67 182
e 67 185
e 67 192
e 67 197
e 67 198
e 67 209
e 67 219
e 67 221
e 67 223
e 67 229
e 67 235
e 68 75
e 68 84
e 68 90
e 68 97
e 68 103
e 68 109
e 68 112
e 68 130
e 68 133
e 68 146
e 68 185
e 68 234
e 68 237
e 68 241
e 69 73
e 69 77
e 69 78
e 69 96
e 69 105
e 69 110
e 69 114
e 69 128
e 69 129
e 69 130
e 69 136
e 69 142
e 69 156
e 69 175
e 69 181
e 69 184
e 69 194
e 69 202
e 69 209
e 69 235
e 69 250
e 70 72
e 70 77
e 70 87
e 70 90
e 70 128
e 70 129
e 70 134
e 70 135
e 70 136
e 70 150
e 70 155
e 70 163
e 70 176
e 70 186
e 70 206
e 70 217
e 70 219
e 70 236
e 70 242
e 71 101
e 71 120
e 71 139
e 71 144
e 71 161
e 71 167
e 71 173
e 71 186
e 71 189
e 71 202
e 71 203
e 71 210
e 72 79
e 72 84
e 72 94
e 72 101
e 72 103
e 72 104
e 72 105
e 72 107
e 72 116
e 72 123
e 72 132
e 72 145
e 72 149
e 72 158
e 72 178
e 72 190
e 72 199
e 72 213
e 72 220
e 72 236
e 72 237
e 72 240
e 72 241
e 72 243
e 73 75
e 73 76
e 73 78
e 73 79
e 73 80
e 73 81
e 73 86
e 73 90
e 73 94
e 73 98
e 73 99
e 73 101
e 73 109
e 73 113
e 73 122
e 73 156
e 73 161
e 73 207
e 73 215
e 74 83
e 74 89
e 74 96
e 74 110
e 74 119
e 74 129
e 74 157
e 74 163
e 74 167
e 74 173
e 74 176
e 74 185
e 75 89
e 75 90
e 75 94
e 75 98
e 75 101
e 75 107
e 75 117
e 75 119
e 75 130
e 75 135
e 75 136
e 75 154
e 75 160
e 75 223
e 75 231
e 75 235
e 75 248
e 76 81
e 76 103
e 76 105
e 76 107
e 76 112
e 76 116
e 76 118
e 76 119
e 76 134
e 76 137
e 76 151
e 76 160
e 76 169
e 76 180
e 76 194
e 76 213
e 76 220
e 76 247
e 77 83
e 77 107
e 77 131
e 77 157
e 77 163
e 77 192
e 77 198
e 77 220
e 77 221
e 77 245
e 78 98
e 78 102
e 78 106
e 78 147
e 78 174
e 78 184
e 78 230
e 79 82
e 79 86
e 79 88
e 79 89
e 79 94
e 79 115
e 79 133
e 79 141
e 79 143
e 79 149
e 79 159
e 79 161
e 79 162
e 79 187
e 79 190
e 79 215
e 79 216
e 79 246
e 80 91
e 80 96
e 80 108
e 80 125
e 80 133
e 80 138
e 80 142
e 80 174
e 80 187
e 80 197
e 80 231
e 81 83
e 81 90
e 81 99
e 81 117
e 81 121
e 81 129
e 81 132
e 81 154
e 81 155
e 81 172
e 81 178
e 81 185
e 81 200
e 81 211
e 81 216
e 81 226
e 81 237
e 81 247
e 82 114
e 82 126
e 82 131
e 82 132
e 82 137
e 82 152
e 82 156
e 82 158
e 82 160
e 82 185
e 82 186
e 82 199
e 82 218
e 82 231
e 82 242
e 83 84
e 83 89
e 83 92
e 83 108
e 83 114
e 83 131
e 83 144
e 83 161
e 83 167
e 83 169
e 83 174
e 83 177
e 83 185
e 83 187
e 83 193
e 83 196
e 83 203
e 83 207
e 83 220
e 83 244
e 84 102
e 84 104
e 84 109
e 84 119
e 84 132
e 84 141
e 84 150
e 84 152
e 84 173
e 84 207
e 84 216
e 84 245
e 85 135
e 85 146
e 85 150
e 85 156
e 85 179
e 85 191
e 85 236
e 86 88
e 86 94
e 86 97
e 86 99
e 86 108
e 86 117
e 86 118
e 86 124
e 86 137
e 86 146
e 86 147
e 86 158
e 86 159
e 86 160
e 86 161
e 86 177
e 86 188
e 86 204
e 86 205
e 86 218
e 86 224
e 86 225
e 86 233
e 86 246
e 87 104
e 87 120
e 87 122
e 87 136
e 87 148
e 87 149
e 87 153
e 87 163
e 87 166
e 87 213
e 87 218
e 87 221
e 87 235
e 87 237
e 87 239
e 88 125
e 88 126
e 88 127
e 88 134
e 88 138
e 88 174
e 88 183
e 88 220
e 88 227
e 88 246
e 89 92
e 89 93
e 89 97
e 89 99
e 89 110
e 89 131
e 89 132
e 89 144
e 89 151
e 89 154
e 89 168
e 89 177
e 89 179
e 89 182
e 89 198
e 89 199
e 89 202
e 89 224
e 89 226
e 89 232
e 90 94
e 90 123
e 90 146
e 91 97
e 91 103
e 91 109
e 91 124
e 91 134
e 91 141
e 91 144
e 91 162
e 91 186
e 91 192
e 91 193
e 91 237
e 92 104
e 92 110
e 92 113
e 92 114
e 92 129
e 92 137
e 92 148
e 92 163
e 92 190
e 92 206
e 92 215
e 92 218
e 92 238
e 93 107
e 93 122
e 93 125
e 93 155
e 93 168
e 93 173
e 93 190
e 93 236
e 94 104
e 94 118
e 94 120
e 94 127
e 94 138
e 94 145
e 94 172
e 94 198
e 94 223
e 94 239
e 95 100
e 95 112
e 95 117
e 95 129
e 95 131
e 95 132
e 95 136
e 95 137
e 95 138
e 95 139
e 95 142
e 95 145
e 95 160
e 95 163
e 95 164
e 95 166
e 95 168
e 95 179
e 95 182
e 95 193
e 95 218
e 95 223
e 96 98
e 96 100
e 96 101
e 96 102
e 96 120
e 96 132
e 96 152
e 96 157
e 96 158
e 96 159
e 96 161
e 96 164
e 96 177
e 96 179
e 96 206
e 96 211
e 96 217
e 96 250
e 97 109
e 97 116
e 97 121
e 97 124
e 97 127
e 97 156
e 97 188
e 97 201
e 97 222
e 97 235
e 97 248
e 98 107
e 98 127
e 98 139
e 98 163
e 98 168
e 98 175
e 98 178
e 98 198
e 99 106
e 99 112
e 99 122
e 99 139
e 99 153
e 99 212
e 99 222
e 99 239
e 99 240
e 99 248
e 100 102
e 100 111
e 100 120
e 100 122
e 100 136
e 100 138
e 100 153
e 100 162
e 100 165
e 100 166
e 100 175
e 100 181
e 100 182
e 100 185
e 100 197
e 100 198
e 100 202
e 100 215
e 100 223
e 100 232
e 100 239
e 101 115
e 101 128
e 101 129
e 101 154
e 101 166
e 101 172
e 101 178
e 101 193
e 101 202
e 101 221
e 101 224
e 101 225
e 101 238
e 101 239
e 101 243
e 101 245
e 102 103
e 102 116
e 102 126
e 102 131
e 102 138
e 102 153
e 102 162
e 102 168
e 102 174
e 102 221
e 102 246
e 102 247
e 103 113
e 103 119
e 103 130
e 103 174
e 103 191
e 103 207
e 103 209
e 103 231
e 104 105
e 104 125
e 104 129
e 104 131
e 104 133
e 104 139
e 104 151
e 104 174
e 104 196
e 104 222
e 104 227
e 105 108
e 105 112
e 105 117
e 105 155
e 105 200
e 105 224
e 106 129
e 106 162
e 106 175
e 106 187
e 106 192
e 106 222
e 107 109
e 107 115
e 107 118
e 107 122
e 107 133
e 107 143
e 107 146
e 107 164
e 107 188
e 107 189
e 107 206
e 107 210
e 107 251
e 108 119
e 108 123
e 108 124
e 108 139
e 108 142
e 108 150
e 108 151
e 108 165
e 108 167
e 108 172
e 108 181
e 108 203
e 108 239
e 108 240
e 109 132
e 109 154
e 109 164
e 109 223
e 109 249
e 110 115
e 110 117
e 110 139
e 110 155
e 110 161
e 110 163
e 110 165
e 110 166
e 110 186
e 110 196
e 110 210
e 110 216
e 110 233
e 110 237
e 110 239
e 111 113
e 111 131
e 111 171
e 111 200
e 111 215
e 111 221
e 112 116
e 112 124
e 112 128
e 112 133
e 112 182
e 112 202
e 112 214
e 112 216
e 112 230
e 112 239
e 112 242
e 112 245
e 113 134
e 113 148
e 113 177
e 113 207
e 113 247
e 113 250
e 114 115
e 114 125
e 114 132
e 114 156
e 114 162
e 114 171
e 114 199
e 114 233
e 114 237
e 114 238
e 114 242
e 115 122
e 115 154
e 115 191
e 115 244
e 116 119
e 116 120
e 116 139
e 116 156
e 116 157
e 116 169
e 116 170
e 116 200
e 116 241
e 117 127
e 117 155
e 117 170
e 117 176
e 117 219
e 117 250
e 118 123
e 118 125
e 118 133
e 118 176
e 118 180
e 118 190
e 118 208
e 119 138
e 119 146
e 119 148
e 119 157
e 119 204
e 119 211
e 119 225
e 119 232
e 119 249
e 120 125
e 120 152
e 120 175
e 120 193
e 120 195
e 120 210
e 120 211
e 120 221
e 120 224
e 120 227
e 121 140
e 121 169
e 121 175
e 121 186
e 121 187
e 121 192
e 121 202
e 122 124
e 122 139
e 122 141
e 122 174
e 122 191
e 122 197
e 122 244
e 122 246
e 122 248
e 123 151
e 123 154
e 123 155
e 123 175
e 123 205
e 123 208
e 123 210
e 123 216
e 123 234
e 123 240
e 123 248
e 125 144
e 125 157
e 125 173
e 125 180
e 125 182
e 125 188
e 125 200
e 125 208
e 125 217
e 126 132
e 126 154
e 126 155
e 126 171
e 126 181
e 126 219
e 126 223
e 126 228
e 126 237
e 126 244
e 127 170
e 127 226
e 128 155
e 128 159
e 128 171
e 128 183
e 128 199
e 128 224
e 128 228
e 128 232
e 129 147
e 129 153
e 129 184
e 129 200
e 129 201
e 129 208
e 129 211
e 129 249
e 130 138
e 130 169
e 130 228
e 131 135
e 131 143
e 131 146
e 131 157
e 131 172
e 131 210
e 132 138
e 132 150
e 132 164
e 132 178
e 132 199
e 133 185
e 133 227
e 134 139
e 134 140
e 134 181
e 134 213
e 134 226
e 134 231
e 134 237
e 135 137
e 135 138
e 135 167
e 135 220
e 135 228
e 135 239
e 135 249
e 136 176
e 136 204
e 136 239
e 136 251
e 137 140
e 137 167
e 137 193
e 137 209
e 137 241
e 138 149
e 138 152
e 138 159
e 138 166
e 138 168
e 138 171
e 138 186
e 138 201
e 138 205
e 138 219
e 138 220
e 138 225
e 138 234
e 138 243
e 139 141
e 139 173
e 139 185
e 139 216
e 139 219
e 139 241
e 139 251
e 140 144
e 140 148
e 140 156
e 140 166
e 140 205
e 140 207
e 140 233
e 141 173
e 141 190
e 141 204
e 141 205
e 141 222
e 142 179
e 143 153
e 143 160
e 143 213
e 143 218
e 143 245
e 144 149
e 144 159
e 144 170
e 144 182
e 144 195
e 144 225
e 145 159
e 145 181
e 145 182
e 145 188
e 145 247
e 145 249
e 145 251
e 146 173
e 146 197
e 146 228
e 146 231
e 146 238
e 147 175
e 147 178
e 147 201
e 147 210
e 148 158
e 148 160
e 148 175
e 148 189
e 148 196
e 148 199
e 148 203
e 148 208
e 148 212
e 149 153
e 149 172
e 149 183
e 149 188
e 149 230
e 150 155
e 150 168
e 150 196
e 150 204
e 150 227
e 150 237
e 150 249
e 150 250
e 151 250
e 152 209
e 153 207
e 153 226
e 153 235
e 154 203
e 154 205
e 154 207
e 154 208
e 154 225
e 154 228
e 155 160
e 155 161
e 155 180
e 155 195
e 155 197
e 155 212
e 155 233
e 155 247
e 156 158
e 156 165
e 156 183
e 156 184
e 156 189
e 156 196
e 156 208
e 156 229
e 156 241
e 157 179
e 157 184
e 157 191
e 157 197
e 158 173
e 158 233
e 159 176
e 159 195
e 159 234
e 160 164
e 160 168
e 160 215
e 161 180
e 161 181
e 161 191
e 161 207
e 161 217
e 161 229
e 161 230
e 161 234
e 162 211
e 162 222
e 162 229
e 163 172
e 163 176
e 163 187
e 163 199
e 164 165
e 164 183
e 164 207
e 164 216
e 164 222
e 164 246
e 165 171
e 165 188
e 165 206
e 165 211
e 165 213
e 165 221
e 165 225
e 166 189
e 166 193
e 166 241
e 167 196
e 167 224
e 168 170
e 168 171
e 168 200
e 168 211
e 168 229
e 169 171
e 169 174
e 169 227
e 170 180
e 170 199
e 171 197
e 171 205
e 171 218
e 171 249
e 172 182
e 172 220
e 172 228
e 172 242
e 173 187
e 173 250
e 174 178
e 174 197
e 174 240
e 175 184
e 175 195
e 175 196
e 175 244
e 175 246
e 175 247
e 176 182
e 176 217
e 176 219
e 176 227
e 176 240
e 176 251
e 177 188
e 177 209
e 178 214
e 178 215
e 178 217
e 179 202
e 179 206
e 179 223
e 180 202
e 180 235
e 181 195
e 181 222
e 181 250
e 182 192
e 183 214
e 183 226
e 183 245
e 183 250
e 184 203
e 184 212
e 184 221
e 186 202
e 186 227
e 187 209
e 187 212
e 187 230
e 187 240
e 187 243
e 187 246
e 188 190
e 188 198
e 188 202
e 188 203
e 188 214
e 188 223
e 188 224
e 188 234
e 189 208
e 189 209
e 189 212
e 189 242
e 190 208
e 191 201
e 191 236
e 192 209
e 192 237
e 193 207
e 193 222
e 193 247
e 194 205
e 194 219
e 194 244
e 194 245
e 195 203
e 195 226
e 195 229
e 195 232
e 196 199
e 196 201
e 196 206
e 196 217
e 196 234
e 196 236
e 196 238
e 197 216
e 197 233
e 198 224
e 198 225
e 198 234
e 198 250
e 199 218
e 199 230
e 199 237
e 200 203
e 200 221
e 200 232
e 200 234
e 200 251
e 201 204
e 201 216
e 201 226
e 201 227
e 202 210
e 202 211
e 202 219
e 202 232
e 203 206
e 203 213
e 203 238
e 204 213
e 204 219
e 204 231
e 204 248
e 205 208
e 205 237
e 206 220
e 206 232
e 206 239
e 207 214
e 208 214
e 208 250
e 209 210
e 209 238
e 210 231
e 211 238
e 213 250
e 214 246
e 215 224
e 218 224
e 219 221
e 220 244
e 220 251
e 221 226
e 221 236
e 222 235
e 222 249
e 223 243
e 224 227
e 225 233
e 225 244
e 226 242
e 227 243
e 228 241
e 230 232
e 230 236
e 230 244
e 231 243
e 233 242
e 234 245
e 236 241
e 236 248
e 240 241
